data;

param xpos := 

d1 10

c1	-7
c4	10
c8	-4
c11	3
c12	6
c13	-1
c16	-8
c21	-3
c22	1
c23	4
c29	-7
c30	-3
c34	1
c36	10
c38	-1
c39	-5
c40	8
c41	-1
c43	10
c46	-2
c49	-1
c52	-7
c54	-5
c56	-3
c59	0;


param ypos :=

d1 10

c1	-10
c4	-10
c8	-7
c11	-7
c12	-7
c13	-6
c16	-3
c21	-2
c22	-2
c23	-2
c29	0
c30	0
c34	1
c36	1
c38	3
c39	4
c40	4
c41	5
c43	6
c46	7
c49	8
c52	9
c54	9
c56	10
c59	10

;